
 102   30
  10   10   10   10   10   10   10   10   10   10   10   10   10   10   10   10   10   10   10   10   10   10   10   10   10   10   10   10   10   10

   0   0   0   0   0   0   0   0   0   0   0   0   0   0   0   0   0   0   0   0   0   0   0   0   0   0   0   0   0   0   0  27 2 3 4 5 6 7 8 9 10 11 12 14 15 16 17 18 19 20 21 23 26 27 28 29 30 33 42 
   6   0   0   1   0   2   1   0   0   0   0   2   0   0   0   0   2   0   0   0   0   0   0   0   0   0   0   0   0   1   0  13 71 59 57 48 44 43 39 38 37 35 32 31 13 
   5   0   1   0   0   0   0   0   0   0   0   0   0   0   0   0   0   0   0   0   0   2   0   0   0   0   0   0   0   0   0  20 100 79 78 76 71 69 64 63 57 54 53 52 51 49 48 46 44 41 40 22 
   2   2   0   0   0   0   0   1   0   0   0   0   0   0   2   0   0   0   0   0   0   0   0   0   0   0   0   0   0   0   0  17 77 70 69 67 62 59 57 56 55 53 50 49 43 41 39 31 25 
   5   0   0   0   1   0   0   0   0   0   0   0   0   0   0   0   0   0   0   1   3   0   0   0   0   0   0   0   0   0   0  20 101 100 97 78 77 71 70 69 66 62 60 59 57 56 55 50 46 45 39 35 
   1   0   0   0   0   0   0   0   0   0   0   0   0   1   0   0   0   0   0   0   0   4   0   0   3   0   1   0   0   4   0   9 100 67 58 54 43 41 40 24 22 
   2   0   4   0   0   0   0   0   0   1   0   0   0   0   0   0   2   0   0   3   0   0   0   0   0   0   0   0   0   0   0  11 99 78 76 63 62 51 48 38 37 34 32 
   7   0   0   0   0   0   0  10   0   0   1   0   0   0   6   0   0   0   0   0   0   0   0   0   0   0   0   0   0   0   0  13 95 79 78 77 76 70 67 64 62 57 52 36 25 
   6   0   4   0   0   5   0   0   0   0   0   0   0   0   0   0  10   2   0   0   0   0   0   4   0   0   0   1   0   0   0  17 99 94 79 78 70 67 66 65 63 60 59 56 55 53 50 47 44 
   3   0   0   0   0   0   0   0   0   0   0   0   0   5   0   0   0   0   2   0   0   0   0   0   5   0   0   0   0   0   0  13 94 76 71 69 66 64 63 59 53 48 41 38 31 
   6   0   0   0   0   0   0   0   0   0   0   0   0   0   0   0   0   0   0   0   0   9   0   0   0   0   0   0   0   0   0  17 100 99 98 77 76 70 69 68 67 65 64 62 59 57 49 48 37 
   2   0   0   4   0   0   0   0   1   0   0   0   0   0   0   0   0   0   0   0   0   0   1   0   0   2   0   0   0   0   0  17 101 100 99 79 78 77 71 67 65 61 60 59 56 54 52 48 37 
   8   0   0   0   0   0   0   0   0   0   0   0   0   0   0   0   0   5   0   0   0   0   0   0   0   0   0   6   0  10   0  21 101 100 99 97 96 94 78 77 75 74 73 70 68 67 66 65 63 56 55 52 50 
   9   2   9   0   0   0   0   0   0   0   0   2   0   0   0   0   0   0   0   0   0   0   0   6   0   0   3   0   0   0   3  17 99 90 79 77 71 70 69 68 67 66 63 60 59 52 48 47 43 
   7   0   0   0   0   0   0   0   0   0   9   0   0   0   0   0   0   0   0   0   0   0   0   2   0   0   6   0   0   0   4  12 99 94 78 70 69 68 66 55 52 48 47 38 
   6   0   7   0   0   0   0   0   0   0   0   0   0   0   0   0   0   0   0   0   0   0   0  10   0   0   0   0   0   0   0  23 101 100 99 98 97 96 95 94 90 79 76 75 74 70 68 67 66 65 64 60 59 54 50 
   5   0   0   0   0   0   0   0   0   0   0   0   0   0   0   0   0   0   0   0   0   0   0   0   7   2   0   0   0   0  10  10 97 95 94 75 69 59 55 52 38 36 
   1   0   0   9   0   0   0   0   0   0   0   0   0   0   0   0   0   0   0   0   0   0   6   0   0   5   0   5   0   0   0   9 98 78 76 67 59 48 47 44 34 
   6   0   5   0   0   3   0   0   0  10   0   0   1   0   0   2   0   0   0   4   0   0   0   0   0   0   0   0   0   0   0  14 100 99 98 78 77 74 69 66 65 60 59 55 51 48 
   8   0   0   0   0   0   0   0   7   0   0   8   0   0   0   0   0   0   0   0   0   0   0   0   7   0   0   0   0   0   0  13 101 99 98 96 95 93 91 78 77 69 55 54 37 
   6   0   0   0   0   0   0   0   0   0   0   0   0   0   8   0   0   0   0   0   0   0   0   5   0   0   0   8   0   0   0  11 101 99 89 76 75 70 67 53 52 48 45 
   7   0   8   0   0   9   0   0   0   0   0   0   0   6   0   0   0   0   0   9   0   0   0   0   0   0   0   0   0   0   0  15 99 98 96 95 94 90 86 77 73 70 66 65 62 60 47 
   3   0   0   0   0   0   0   0   0   5   0   0   8   0   0   0   0   0   0   0   0   0   0   0   7  10   7   0   0   0   0  14 99 95 94 93 89 86 78 76 75 69 67 65 54 44 
  10   0   0   0   0   0   0   0   5   6   0   7   0   0   0   0   0   0   7   0   0   0   0   0   0   0   7   0   0   0   0  16 99 98 97 96 94 92 87 76 75 72 69 68 65 64 60 56 
  10   0   0   0   7   0   0   0   0   0   0   6   0   0   0   0   0   0   0   0   0   0   0   8   0   0   0   0   0   0   0  13 100 99 96 94 90 88 86 72 71 68 66 60 47 
   2   0   0   0   0   0   0   0   0   0   0   0   0   0   9   0   0   0   0   0   0   0   0   0   0   0   0   0   1   0   0  12 99 97 94 92 83 79 76 68 67 65 57 50 
   3   0   0   0   0   0   0   0   0   0   0   0   0   4   0   0   0   0   0   0   0   0   4   0   6   7   0   0   0   0   0  15 100 97 94 93 91 87 85 84 76 74 73 71 66 65 56 
   7   0   0   0   6   0   0   0   0   5   0   0   0   0   0   0   0   0   0   0   0   0   0   0   0   0   0   0   0   0   0  12 101 100 98 97 96 94 87 86 68 60 59 57 
   1   0   0   0   0   0   7   0   0   4   0   0   0   0   0   0   0   0   0   0   0   0   0   0   0   0   0   0   0   0   0   9 92 90 88 86 77 72 68 64 43 
   1   0   0   0   0   0   0   8   0   0   6   0   0   0   0   0   0   0   0   0   0   0   6   0   0   0   0   0   0   0   0  13 100 93 90 88 87 86 84 77 74 69 68 66 59 
   7   0   0   0   0   0   0   6   8   0   0   0   0   6   0   0   0   0  10   0   0   7   0   0   0   7   0   0   0   0   0  14 99 96 92 90 86 85 79 78 75 74 73 72 65 60 
   5   0   0   0   0   0   0   0   0   0   0   0   0   0   0   0   0   0   0   0   0   0   0   0   0   0   0   0   0   0   0  13 101 95 90 89 84 75 74 73 72 69 65 64 52 
   7   0   0   0   0   0   6   9   0   7   0   4   5   0   0   0   0   2   0   0   0   0   0   0   0   0   0   0   0   0   0  11 100 97 91 90 89 74 73 72 67 65 52 
   4   0   0   8   0   9   0   0   0   0   0   0   0   8   0   0   0   0   0   0   6   0   5   0   8   0   6   0   0   0   0  13 100 96 95 90 88 87 86 77 74 72 69 66 60 
   9   0   0   0   0   0   0   0   0   0   0   0   0   0   0   0   0   0   0   0   0   0   0   0   0   5   5   8   0   0   0  14 94 93 90 89 86 85 83 82 75 74 72 68 67 65 
   3   0   0   0   0   0   0   0   0   0   0   0   0  10   0   0   7   0   0   0   0   4   7   0   6   0   0   7   0   0   0  13 101 96 93 91 87 86 85 84 81 73 72 66 65 
   4   0   0   0   0   0   0   0   8   0   0   0   7   0   3   0   0   0   0   0   0  10   0   0   0   5   0   0   0   0   0   7 90 88 86 73 72 66 47 
   7   0   0   0   0   0   0   0   0   0   0   0   0   7   8   0   0   0   0   8   0   0   0   0   0   0   9   0   0   0   0  13 101 100 93 91 90 89 86 85 83 82 80 74 67 
   1   0   0   4   0   0   0   7   5   0   3  10   0   0   0   4   0   0   7   0   0   0   0   0   0   0   0   0   0   0   0  12 95 94 91 90 89 87 86 83 82 76 72 64 
   9   0   0   8   0   0   0   0   0   0   0   0   0   0   5   0   0   9   0   0   0   0   0   0   0   0   0   5   0   5   0   9 98 96 94 93 88 86 84 82 59 
   8   0   7   0   0   0   0   0   0   0   4   0   0   0   0   0   0   0   0   0   0   8   0   0   0   0   0   0   0   0   0  11 99 91 89 86 85 84 83 82 75 72 65 
   5   0   0   5   0   0   4   0   0   0   0   0   4   0   8   0   7   0   0   0   8   0   7   0   0   0   0   9   0   0   0  10 99 95 92 89 86 82 81 80 73 67 
   7   0   0   0   0   0   0   0   0   0   0   0   0   0   5   0   0   0   0   0   0   5   8   0   2   0   0   0   0   0   0   9 98 94 93 87 84 82 76 74 73 
   9   5   0   0   0  10   0   0   0   0   0   0   0   0   0   0   0   0   0   0   0   0   0   0   0   0   0   0   0   0   0   9 101 96 90 88 87 82 81 72 68 
   6   0   2   0   0   0   0   4   0   0   0   0   0   0   0   0   0   0   0   0   0   0   0   0   0   8   7   0   5   0   0   8 95 94 92 87 84 82 73 65 
   7   0   0   0   0   0   0   0   0   0   0   8   0   0   0   0   0   0   0   0   0   0   0   0   0   0   0   0   0   0   0   8 99 94 86 85 82 81 73 65 
   1   0   0   0   0   0   0   0   0   0   0   8   6   0   4   0   0   0   0   0   0   0   0   0   0   0   6   0   9   0   6   9 97 92 89 87 85 82 80 75 74 
   5   0   0   0   0   0   0   5   0   8   0   0   0   0   0   0   0   0   0   0   0   0   0   0   0   0   0   0   0   0   0   9 96 95 92 87 85 84 82 80 73 
   8   0   0   0  10   0   0   4   0   0   3   0   0   0   0   0   0   0   0   0   0   0   0   0   0   0   0   3   0   0   0   9 97 94 93 91 87 85 83 80 75 
   1   0   0   7   0   0   0   4   0   0   9   0   0   7   0   8   0   6   0   6   0   0   0   5   0   0   0   0   0   5   0   8 93 89 88 87 86 84 82 72 
   6   0   0   4   0   0   0   0   0   0   0   0   0   0   6   0   0   0   0   0   0   0   0   0   0   0   0   0   0   5   0   8 94 93 90 85 84 82 81 73 
   4   0   0   0   0   0   0   0   8   0   0   6   0   0   0   0   0   0   0   0   8   0   0   0   4   0   0   0   0   0   0   8 98 93 88 86 85 83 82 80 
  10   0   0   0   0   0   0   0   0   0   0   0   0   0   0   0   0   0   0   0   4   8   0   0   3   0   7   0   0   0   5   8 98 97 91 90 88 84 83 81 
   9   0  10   0   0   0   9   0   0   5   0   8   9   0   0   0   0   6   0   0   0   0   8   0   3   0   0   0   0   0   0   7 92 85 84 83 82 81 72 
   7   0   0   0   0   0   0   0   0   8   0   0   0   0   0   0   0   0   0   0   0   0   7   0   0   0   0   0   0   0   0   5 90 86 82 76 64 
   6   0   0   0   0   0   0   0   0   0   0   0   0   0   0   2   0   4   4   0   0   0   0   0   0   0   0   0   0   0   0   6 95 90 86 82 81 80 
   7   0   0   0   0   0   0   0   0   0   0   0   0   7   0   0   0   0   0   0   0   0   7   0   0   0   0   7   0   0   0   5 90 85 84 82 74 
   1   0   0   0   0   0   0   0   0   0   0   0   0   0   0   0   0   0   0   0   0   0   0   0   0   0   0   0   4   0   4   5 88 87 84 75 74 
   3   0   0   0   0   0   0   0   0   0   0   6   0   0   0   0   0   0   0   0   0   6   0   0   0   0   0   0   0   0   7   4 89 85 73 72 
   5   0   0   0   0   0   0   0   0   0   0   0   0   0   0   0   0   0   0   7   0   0   8   0   7   0   0   0   0   7   7   5 91 89 84 83 81 
   2   0   0   0   0   0   7   0   0   0   0   0   0   0   0   0   0   8   0   0   7   0   0   5   0   9   0   0   5   0   0   5 93 87 85 83 81 
   5   0   0   0   0   0   0   0   0   0   0   0   0   0   0   0   0   0   0   0   6   0   0   0   0   0   0   0   0   0   0   4 84 82 81 80 
   2   7   0   0   0   0   0   0   0   5   0   0   0   0   0   8   0   6   0   0   0   0   0   0   0   0   0   0   0   0   0   3 86 81 72 
   3   0   0   0   0   6   0   0   0   0   6   0   0   0   0   0  10   0   0   6   4   0   0   0  10   0   7   0   0   3   0   3 85 81 80 
   4   0  10   0   0   0   7   0   0   0   0   0   0   0   0   0   0   0   0   8   0   6   0   0   0   0   0   0   8   0   0   2 88 80 
   5   0   0   0   0   0   0   0   0   0   0   0   0   0   0   0   0   0   0   0   0   4   6   4   0   0   0   0   0   8   0   2 92 82 
   9   0   0   5   8   0   0   0   0   0   7   0   0   0   0   0   0   0   0   0   0   3   0   5   0   0   0   0   0   0   0   2 87 84 
   7   0   0   0   0   0   0   0   5   0   0   0   9   0   0   0   0   0   0   0   0   0   0   0   0   0   0   0   0   0   0   2 91 80 
   9   0   0   0   0   0   0   0   0   6   0   0   0   0   0   0   8   0   0   0   0   0   0   0   0   0   0   8   0   0   0   2 83 80 
   4   0   0   0   0   0   0   0   0   0   0   0   0   0   0   0   0   0   0   0   0   0   0   0   0   0   0   0   0   8   9   1 72 
   3   0   0   4   0   0   0   0   0   0   0   0   0   0   6   0   0   0   0   0   0   0   2   0   0   0   2   0   0   0   0   1 75 
   9   0   0   0   0   0   0   0   0   0   0   9   0   0   0   0   0   0   0   0   0   0   7   6   0   0   0   0   0   0   0   1 80 
   3   8   0   0   0   0   6   0   0   9   0   0   0   0   0   0   0   6   0   0   0   0   0   0   0   0   0   0   0   0   0   1 83 
   1   0   0   0   0   0   0   8   0   0   0   0   0   4   0   0   2   0   0   0   0   0   0  10   0   0   0   0   0   0   0   1 81 
  10   0   0   0   0   0  10   0   0   7   0   0   0   0   0   0   0   0   0   7   0   0   0   0   0   0   0   0   0   0   3   1 81 
   8   0   0   0   0   0   0   0   0   0   0   0   0   0   0   7   0   0   0   0   0   0   0   0   8   0   0   0   0  10   0   1 80 
   9   0   5   0   0   0   0   5   5   0   0   0   0   0   0   0   0   0   0   0   0   0   0   0   0   7   0   0   0   0   7   1 89 
   2   0   6   0   0   0   0   0   8   0   0   2   0   5   0   0   0   0   0   0   2   0   0   0   7   0   0   0   0   0   0   1 88 
   6   0   0   9   0   7   0   0   0   0   0   0   0   0   0   0   0   0   0   0   0   0   0   0   0   8   9   0   0   5   0   1 82 
   5   0   0   0   0   0   0   0   0   0   0   0   8   0   0   0   0   0   0   0   0   8   0   0   0   0   0   0   0   0   0   1 102
   5   0   0   0   0   0   0   0   0   0   0   0   0   0   0   0   0   0   0   7   0   0   0   7   0   0   0   0   7   0   0   1 102
   4   0   0   0   0   0   0   0   0   4   0   8   0   0   0   0   0   6   0   0   0   0   0   0   0   7   0   0   6   0   0   1 102
   2   0   7   6   0   0   0   0   0   0   0   0   0   0   0   0   0   0   0   0  10   0   0   0   0   0   4   0   0   0   0   1 102
   4   0   0   0   0   0   6   0   0   0   0   0   0   0   0   0   0   0   0   0   0   0   0   0   6   0   0   0   0   0   0   1 102
   4   0   0   0   0   0   0   0   0   0   7   0   0   0   0   0   0   0   0   0   0   0   0   0   7   0   7   0   0   0   0   1 102
   3   4   0  10   0   0   5   0   0   0   0   4   3   0   0   0   0   0   0   0   8   0   0   0   0   0   0   0   9   0   4   1 102
   3   0   0   0   0   0   0   0   0   0   0   0   0   0   0   0   0   0   0   0   0   0   3   0   0   0   0   0   0   7   0   1 102
   8   0   7   0   0   0   0   0   0   0   0   4   0   0   0   0   0   0   0   0   0   0   0   0   0   2   0   0   0   0   0   1 102
   2   0   7   0   0   0   0   0   0   0   0   0   0   0   0   0   0   0   0   0   0   0   0   0   0   0   0   0   0   0   0   1 102
   8   0   0   0   0   0   0   0   0   0   0   0   0   0   2   6   0   0   0   0   0   6   0   7   0   0   0   6   0   0   0   1 102
  10   0   0   0   0   0   0   0   0   0   6   0   0   0   0   0   0   0   0   0   0   6   6   0   6   0   0   0   0   0   0   1 102
   5   0   0   0   0   0   4   0   0   0   0   0   0   0   0   0   0   0   0   0   0   0   0   0   0   0   0   0   0   0   0   1 102
   5  10   0   0   0   0   0   7   0   0  10   0   0   0   0  10   0   0   0   0   0   0   0   0   0   0   0   0   0   0   0   1 102
   7   0   0   0   0   0   0   0   0   0   0   0   0   7   8   0   0   0   0   0   0   0   8   0   0   0   0   0   0   0   0   1 102
   8   0   4   0   0   0   0   0   0   0   0   0   0   0   0   0   0   8   0   0   0   0   0   0   0   0   7   0   0   0   0   1 102
   3  10   0   0   0   0   0   0   0   0   7   0   0   0  10   7   0   0   0   0   0   0   0   4  10   0   0   0   0   0   9   1 102
   6   0   0   0   0   0   0   0   0   0   0   0   4   0   0   0   0  10   0   0   0   0   0   0   0   0   8   0   0   0   0   1 102
  10   0   0   0   4   0   0   0   0   0   0   0   8   0   0   0   0   0   0   6   0   0   0   8   0   0   6   0   0   0   0   1 102
   3   0   5   0   0   0   0   0   0   0   0   0   0   7   0   0   0   0   0   0   0   0   0   0   0   0   0   0   0   0   0   1 102
   7   0   0   0   6   0   0   0   0   0   0   0   0   0   0   0   0   0   0   0   0   6   0   0   4   0   0   5   0   0   0   1 102
   7   0   0   0   0   3   0   0   0   0   0   0   0   0   0   0   0   0   6   0   0   0   8   0   0   0   0   0   0   0   0   1 102
   0   0   0   0   0   0   0   0   0   0   0   0   0   0   0   0   0   0   0   0   0   0   0   0   0   0   0   0   0   0   0   0 
